NAME
ROWS
 N      cost
 L       0_0
 L       0_1
 L       0_2
 L       1_0
 L       1_1
 L       1_2
COLUMNS
         0_0      cost   7.50000E-01
         0_0       0_0  -3.50000E+01
         0_0       0_1  -6.00000E+01
         0_0       0_2  -3.00000E+01
         0_0       1_0  -1.00000E+00
         2_1      cost   5.00000E-01
         2_1       0_0  -5.00000E-01
         2_1       0_1  -3.00000E+02
         2_1       0_2  -2.00000E+01
         2_1       1_1  -1.00000E+00
         2_2      cost   1.50000E-01
         2_2       0_0  -5.00000E-01
         2_2       0_1  -1.00000E+01
         2_2       0_2  -1.00000E+01
         2_2       1_2  -1.00000E+00
RHS
                   0_0  -5.00000E-01
                   0_1  -1.50000E+01
                   0_2  -4.00000E+00
                   1_0  -0.00000E+00
                   1_1  -0.00000E+00
                   1_2  -0.00000E+00
RANGES
BOUNDS
 FR                0_0
 FR                0_1
 FR                0_2
ENDATA
